12 66
1 2 2
1 3 3
1 4 5
1 5 5
1 6 2
1 7 1
1 8 1
1 9 3
1 10 3
1 11 3
1 12 2
2 3 5
2 4 5
2 5 5
2 6 3
2 7 5
2 8 4
2 9 2
2 10 4
2 11 2
2 12 1
3 4 1
3 5 5
3 6 2
3 7 2
3 8 3
3 9 2
3 10 1
3 11 5
3 12 4
4 5 3
4 6 1
4 7 5
4 8 3
4 9 2
4 10 5
4 11 1
4 12 4
5 6 4
5 7 1
5 8 3
5 9 5
5 10 5
5 11 5
5 12 4
6 7 4
6 8 1
6 9 2
6 10 1
6 11 2
6 12 1
7 8 5
7 9 5
7 10 2
7 11 2
7 12 3
8 9 2
8 10 4
8 11 2
8 12 2
9 10 1
9 11 4
9 12 2
10 11 2
10 12 5
11 12 5
